(set-logic NRA)
(assert (exists ((a Real)) (exists ((b Real)) (exists ((c Real)) (exists ((d Real)) (or (not (= (* (- 1) (+ (* c (+ (+ (* a a) (* b b)) (* c (+ (+ (* a (+ (- 1) (* a (* a (- 1))))) (* b (* b (* a (- 1))))) (* c (+ (* a a) (* b b))))))) (* d (* d (+ (+ (* a (+ (- 1) (* a (* a (- 1))))) (* b (* b (* a (- 1))))) (* c (+ (* a a) (* b b)))))))) 0)) (not (= (* (- 1) (+ (* c (* c (* b (+ (+ 1 (* a (* a (- 1)))) (* b (* b (- 1))))))) (* d (+ (+ (+ (* a (* a (- 1))) (* b (* b (- 1)))) (* c (* c (+ (* a a) (* b b))))) (* d (+ (* b (+ (+ 1 (* a (* a (- 1)))) (* b (* b (- 1))))) (* d (+ (* a a) (* b b))))))))) 0)) (<= (* b d) 0) (<=  (+ (+ (- 1) (* c c)) (* d d)) 0) (and (= (* (- 1) (+ (* a (- 1)) c)) 0) (= (* (- 1) (+ (* b (- 1)) d)) 0))))))))
(apply qe)
